NAME : P-n21-k2.163877.tour
COMMENT : Length = 163877
COMMENT : Found by LKH [Keld Helsgaun] Sun Dec 17 22:31:26 2017
TYPE : TOUR
DIMENSION : 22
TOUR_SECTION
1
7
21
6
8
3
14
10
18
15
22
17
2
11
5
12
16
13
4
9
19
20
-1
EOF
